benchmarks_CP/INST_49x49/50/inst49x49_50_62.dzn
S=7;
start=[|
-1,	4,	-1,	43,	-1,	-1,	42,	19,	21,	5,	-1,	8,	-1,	-1,	6,	-1,	27,	-1,	18,	-1,	31,	-1,	44,	25,	-1,	-1,	36,	-1,	-1,	-1,	3,	-1,	13,	-1,	-1,	46,	1,	22,	49,	2,	-1,	23,	-1,	-1,	30,	9,	-1,	-1,	15|
27,	45,	36,	29,	-1,	-1,	13,	-1,	-1,	-1,	31,	-1,	48,	-1,	43,	-1,	39,	37,	42,	11,	-1,	-1,	38,	34,	9,	1,	18,	-1,	-1,	-1,	-1,	17,	-1,	25,	10,	-1,	-1,	-1,	-1,	-1,	-1,	-1,	46,	-1,	20,	-1,	32,	-1,	-1|
-1,	12,	-1,	26,	35,	8,	-1,	-1,	-1,	-1,	-1,	-1,	10,	44,	-1,	-1,	40,	-1,	2,	-1,	-1,	43,	21,	28,	23,	17,	24,	41,	39,	-1,	-1,	-1,	7,	42,	4,	32,	-1,	-1,	-1,	-1,	-1,	-1,	-1,	49,	22,	6,	36,	37,	-1|
11,	-1,	32,	-1,	-1,	-1,	5,	45,	-1,	37,	24,	-1,	-1,	3,	-1,	34,	-1,	-1,	-1,	12,	-1,	-1,	-1,	-1,	-1,	46,	-1,	-1,	19,	-1,	31,	1,	6,	-1,	-1,	-1,	36,	-1,	25,	-1,	18,	17,	-1,	29,	48,	-1,	16,	-1,	-1|
18,	-1,	-1,	47,	-1,	-1,	-1,	28,	41,	-1,	-1,	39,	-1,	-1,	9,	-1,	45,	17,	-1,	5,	-1,	-1,	42,	2,	-1,	15,	31,	32,	36,	14,	48,	46,	49,	16,	-1,	-1,	20,	11,	-1,	-1,	30,	12,	24,	4,	-1,	-1,	35,	-1,	-1|
46,	-1,	-1,	39,	-1,	-1,	15,	-1,	-1,	-1,	36,	49,	-1,	-1,	32,	48,	23,	13,	-1,	-1,	-1,	-1,	19,	12,	20,	-1,	26,	-1,	5,	-1,	34,	44,	-1,	-1,	35,	-1,	43,	28,	-1,	27,	-1,	8,	17,	-1,	-1,	-1,	-1,	-1,	-1|
6,	30,	21,	-1,	49,	24,	2,	-1,	20,	17,	13,	-1,	-1,	-1,	26,	8,	46,	-1,	44,	33,	-1,	-1,	-1,	29,	35,	-1,	22,	4,	27,	18,	41,	43,	28,	9,	23,	-1,	-1,	5,	-1,	16,	19,	-1,	-1,	-1,	-1,	38,	-1,	3,	1|
7,	27,	25,	13,	42,	-1,	-1,	16,	47,	31,	39,	-1,	12,	-1,	-1,	-1,	32,	-1,	45,	-1,	-1,	-1,	1,	17,	-1,	-1,	4,	-1,	-1,	10,	-1,	-1,	46,	-1,	18,	-1,	11,	9,	-1,	-1,	-1,	26,	3,	-1,	8,	35,	-1,	-1,	28|
-1,	-1,	-1,	22,	-1,	-1,	-1,	2,	-1,	25,	-1,	-1,	-1,	-1,	39,	42,	47,	-1,	-1,	-1,	18,	45,	-1,	-1,	7,	38,	46,	26,	-1,	35,	27,	-1,	5,	20,	11,	-1,	-1,	29,	-1,	-1,	-1,	-1,	-1,	-1,	-1,	-1,	43,	9,	44|
-1,	-1,	43,	8,	-1,	-1,	9,	-1,	22,	-1,	-1,	38,	46,	-1,	28,	27,	-1,	-1,	35,	-1,	41,	31,	30,	-1,	34,	5,	-1,	-1,	15,	39,	-1,	29,	-1,	17,	-1,	42,	44,	-1,	-1,	49,	1,	-1,	-1,	-1,	-1,	45,	13,	20,	18|
-1,	39,	24,	18,	38,	29,	31,	35,	44,	-1,	45,	21,	4,	-1,	-1,	-1,	-1,	-1,	10,	37,	11,	9,	-1,	20,	27,	42,	13,	19,	32,	-1,	-1,	14,	26,	-1,	49,	-1,	48,	-1,	36,	-1,	-1,	30,	12,	-1,	46,	25,	-1,	40,	-1|
28,	-1,	30,	34,	6,	-1,	-1,	-1,	9,	-1,	-1,	1,	27,	-1,	-1,	23,	-1,	-1,	-1,	29,	25,	-1,	32,	37,	16,	8,	49,	40,	42,	-1,	-1,	47,	-1,	-1,	-1,	20,	38,	-1,	-1,	-1,	-1,	-1,	33,	-1,	11,	10,	-1,	-1,	14|
-1,	-1,	-1,	-1,	45,	-1,	48,	33,	-1,	32,	18,	11,	26,	-1,	44,	-1,	-1,	-1,	36,	-1,	30,	-1,	15,	-1,	-1,	43,	29,	35,	-1,	-1,	16,	-1,	24,	-1,	-1,	12,	-1,	27,	40,	-1,	23,	46,	-1,	31,	-1,	-1,	-1,	-1,	21|
-1,	32,	2,	35,	23,	47,	1,	-1,	-1,	-1,	-1,	-1,	29,	17,	-1,	-1,	3,	-1,	48,	46,	16,	12,	11,	-1,	-1,	44,	28,	-1,	30,	8,	43,	-1,	45,	-1,	-1,	-1,	-1,	-1,	6,	-1,	-1,	39,	-1,	-1,	26,	-1,	-1,	42,	-1|
-1,	-1,	-1,	-1,	19,	2,	-1,	-1,	37,	20,	44,	6,	1,	4,	-1,	45,	-1,	33,	-1,	27,	-1,	-1,	-1,	-1,	-1,	-1,	-1,	-1,	29,	42,	26,	-1,	10,	36,	-1,	-1,	-1,	-1,	-1,	-1,	22,	-1,	-1,	-1,	34,	31,	-1,	18,	30|
34,	36,	-1,	7,	-1,	-1,	-1,	-1,	-1,	-1,	-1,	5,	22,	49,	-1,	-1,	-1,	-1,	-1,	-1,	-1,	29,	46,	-1,	-1,	48,	-1,	-1,	-1,	6,	8,	-1,	-1,	-1,	40,	17,	42,	-1,	-1,	24,	31,	32,	-1,	-1,	-1,	-1,	-1,	10,	37|
-1,	21,	3,	-1,	29,	37,	-1,	10,	-1,	-1,	-1,	-1,	13,	-1,	-1,	-1,	-1,	-1,	23,	-1,	12,	25,	9,	-1,	-1,	-1,	-1,	-1,	34,	-1,	-1,	-1,	41,	22,	27,	44,	30,	-1,	45,	-1,	-1,	-1,	-1,	-1,	36,	20,	39,	7,	2|
43,	-1,	-1,	-1,	31,	-1,	28,	42,	-1,	18,	7,	26,	2,	-1,	13,	-1,	-1,	-1,	15,	4,	38,	-1,	16,	30,	-1,	-1,	33,	-1,	20,	47,	-1,	37,	-1,	35,	44,	48,	34,	-1,	21,	23,	-1,	27,	29,	-1,	12,	19,	-1,	17,	32|
30,	-1,	14,	38,	20,	42,	26,	36,	39,	11,	17,	3,	-1,	23,	-1,	49,	-1,	-1,	31,	28,	32,	-1,	43,	47,	-1,	-1,	-1,	37,	24,	-1,	-1,	21,	25,	1,	-1,	19,	29,	12,	33,	4,	-1,	-1,	-1,	-1,	-1,	22,	-1,	16,	9|
-1,	-1,	18,	-1,	-1,	-1,	10,	-1,	31,	-1,	30,	-1,	24,	-1,	-1,	-1,	-1,	-1,	-1,	-1,	42,	-1,	2,	26,	11,	-1,	23,	-1,	-1,	-1,	19,	-1,	17,	7,	-1,	-1,	40,	36,	-1,	47,	20,	-1,	28,	44,	6,	49,	-1,	-1,	25|
-1,	40,	6,	17,	46,	-1,	45,	-1,	29,	16,	-1,	-1,	-1,	48,	-1,	36,	34,	-1,	-1,	-1,	-1,	-1,	18,	-1,	49,	-1,	7,	-1,	23,	5,	15,	9,	-1,	-1,	-1,	3,	-1,	8,	2,	10,	-1,	-1,	26,	47,	24,	43,	-1,	-1,	42|
48,	2,	45,	28,	17,	34,	-1,	-1,	33,	-1,	-1,	-1,	36,	-1,	-1,	4,	-1,	-1,	-1,	35,	-1,	-1,	-1,	40,	-1,	-1,	41,	23,	-1,	-1,	-1,	-1,	-1,	30,	5,	6,	3,	43,	-1,	15,	27,	22,	-1,	-1,	31,	-1,	-1,	-1,	-1|
-1,	-1,	-1,	-1,	-1,	43,	-1,	-1,	19,	-1,	23,	-1,	-1,	27,	-1,	-1,	-1,	46,	-1,	2,	17,	-1,	45,	-1,	10,	-1,	5,	-1,	-1,	21,	9,	-1,	48,	-1,	13,	34,	33,	25,	-1,	14,	-1,	42,	38,	-1,	29,	-1,	-1,	11,	-1|
-1,	23,	-1,	-1,	18,	-1,	29,	-1,	-1,	1,	-1,	-1,	45,	-1,	24,	-1,	42,	-1,	33,	-1,	-1,	-1,	-1,	-1,	8,	27,	-1,	13,	3,	-1,	-1,	-1,	-1,	28,	19,	11,	-1,	-1,	32,	21,	16,	9,	36,	7,	15,	30,	-1,	-1,	-1|
21,	9,	4,	46,	-1,	12,	-1,	49,	28,	41,	14,	-1,	5,	-1,	15,	3,	-1,	22,	43,	39,	-1,	-1,	29,	16,	30,	-1,	-1,	-1,	33,	-1,	-1,	31,	-1,	-1,	26,	8,	-1,	-1,	17,	-1,	-1,	44,	10,	2,	-1,	-1,	-1,	1,	-1|
15,	6,	42,	-1,	39,	25,	27,	-1,	3,	48,	9,	-1,	-1,	-1,	37,	-1,	44,	-1,	29,	34,	-1,	36,	12,	-1,	-1,	-1,	-1,	1,	-1,	-1,	-1,	-1,	2,	-1,	-1,	40,	-1,	-1,	-1,	26,	-1,	49,	18,	19,	-1,	-1,	-1,	-1,	-1|
-1,	26,	47,	1,	7,	33,	-1,	34,	40,	44,	-1,	25,	-1,	-1,	11,	-1,	-1,	23,	16,	-1,	-1,	-1,	-1,	31,	-1,	3,	17,	15,	14,	-1,	29,	36,	-1,	43,	-1,	45,	-1,	37,	30,	-1,	-1,	10,	-1,	-1,	5,	-1,	27,	24,	-1|
3,	10,	19,	5,	-1,	-1,	-1,	11,	42,	-1,	47,	-1,	-1,	22,	1,	9,	20,	-1,	27,	7,	-1,	-1,	33,	46,	-1,	26,	34,	24,	-1,	-1,	-1,	39,	40,	49,	-1,	29,	-1,	-1,	31,	-1,	-1,	-1,	25,	-1,	-1,	28,	-1,	44,	-1|
-1,	-1,	34,	30,	36,	-1,	24,	-1,	-1,	-1,	42,	27,	-1,	13,	-1,	-1,	-1,	-1,	32,	-1,	-1,	-1,	-1,	23,	41,	47,	-1,	5,	35,	-1,	20,	-1,	29,	-1,	33,	-1,	-1,	2,	-1,	-1,	-1,	15,	-1,	-1,	-1,	1,	19,	22,	49|
47,	11,	26,	-1,	21,	-1,	-1,	38,	-1,	-1,	-1,	20,	-1,	-1,	19,	7,	4,	-1,	-1,	9,	-1,	-1,	8,	48,	28,	-1,	42,	-1,	-1,	25,	44,	5,	-1,	-1,	-1,	-1,	49,	-1,	43,	18,	24,	-1,	31,	30,	-1,	36,	-1,	23,	-1|
-1,	-1,	38,	-1,	16,	39,	-1,	37,	-1,	7,	-1,	40,	-1,	47,	-1,	18,	14,	29,	49,	21,	24,	-1,	17,	-1,	-1,	-1,	-1,	10,	-1,	19,	-1,	-1,	-1,	23,	1,	27,	-1,	30,	11,	-1,	46,	-1,	43,	-1,	13,	42,	-1,	-1,	48|
29,	-1,	-1,	-1,	-1,	19,	-1,	24,	-1,	3,	22,	-1,	-1,	1,	36,	-1,	-1,	-1,	-1,	45,	-1,	-1,	49,	38,	-1,	11,	-1,	21,	-1,	-1,	-1,	2,	-1,	-1,	7,	33,	-1,	34,	-1,	31,	42,	25,	-1,	-1,	14,	-1,	20,	-1,	-1|
42,	18,	1,	23,	48,	-1,	-1,	4,	5,	-1,	-1,	34,	-1,	31,	47,	-1,	-1,	-1,	11,	25,	27,	46,	-1,	-1,	40,	-1,	3,	9,	-1,	-1,	13,	-1,	16,	14,	-1,	-1,	32,	-1,	-1,	-1,	-1,	29,	-1,	-1,	-1,	33,	45,	-1,	-1|
31,	-1,	28,	3,	37,	-1,	33,	-1,	-1,	2,	11,	19,	-1,	-1,	42,	15,	-1,	-1,	17,	-1,	-1,	1,	-1,	-1,	25,	-1,	-1,	29,	-1,	-1,	49,	-1,	32,	-1,	8,	7,	-1,	38,	12,	48,	-1,	5,	-1,	-1,	16,	24,	-1,	26,	-1|
-1,	7,	15,	-1,	-1,	44,	41,	-1,	-1,	45,	28,	-1,	-1,	-1,	5,	-1,	10,	1,	-1,	8,	33,	-1,	-1,	24,	32,	14,	-1,	-1,	-1,	-1,	12,	-1,	-1,	21,	-1,	47,	23,	40,	-1,	13,	-1,	16,	6,	11,	25,	37,	9,	-1,	4|
44,	13,	17,	36,	-1,	7,	-1,	-1,	-1,	-1,	-1,	-1,	-1,	40,	-1,	1,	21,	-1,	8,	-1,	-1,	20,	34,	42,	-1,	-1,	30,	43,	16,	-1,	-1,	41,	-1,	2,	37,	-1,	-1,	-1,	22,	-1,	28,	-1,	-1,	18,	38,	-1,	24,	31,	19|
4,	-1,	-1,	9,	-1,	48,	11,	-1,	-1,	30,	-1,	47,	19,	-1,	-1,	-1,	-1,	-1,	-1,	32,	-1,	-1,	24,	27,	-1,	35,	15,	-1,	31,	45,	-1,	33,	23,	-1,	-1,	-1,	8,	46,	-1,	-1,	-1,	36,	40,	-1,	28,	5,	2,	-1,	-1|
14,	29,	-1,	16,	-1,	21,	18,	-1,	-1,	-1,	-1,	-1,	-1,	-1,	48,	5,	35,	45,	-1,	-1,	-1,	-1,	4,	-1,	-1,	19,	-1,	-1,	7,	26,	28,	27,	-1,	24,	17,	30,	12,	13,	-1,	34,	40,	-1,	-1,	36,	42,	-1,	-1,	25,	11|
25,	31,	46,	27,	26,	-1,	-1,	20,	-1,	42,	-1,	24,	-1,	-1,	-1,	-1,	-1,	30,	12,	19,	44,	-1,	36,	45,	22,	-1,	48,	-1,	1,	40,	-1,	18,	-1,	-1,	-1,	23,	-1,	-1,	15,	33,	-1,	7,	-1,	-1,	-1,	-1,	-1,	8,	-1|
24,	-1,	20,	19,	-1,	3,	23,	-1,	-1,	-1,	-1,	-1,	31,	-1,	4,	-1,	-1,	-1,	-1,	36,	-1,	41,	-1,	-1,	-1,	-1,	-1,	46,	44,	-1,	35,	-1,	22,	15,	47,	-1,	16,	21,	27,	9,	-1,	-1,	-1,	-1,	-1,	-1,	-1,	-1,	-1|
-1,	35,	49,	42,	2,	45,	37,	-1,	-1,	-1,	-1,	-1,	-1,	-1,	-1,	-1,	15,	-1,	25,	43,	-1,	23,	5,	11,	29,	13,	-1,	8,	-1,	36,	46,	30,	19,	38,	-1,	-1,	-1,	44,	24,	-1,	47,	-1,	-1,	-1,	-1,	26,	-1,	48,	20|
38,	28,	12,	40,	30,	15,	43,	-1,	-1,	36,	-1,	9,	-1,	6,	2,	-1,	-1,	-1,	46,	-1,	-1,	16,	-1,	-1,	-1,	31,	44,	-1,	25,	49,	42,	13,	-1,	8,	34,	-1,	-1,	-1,	-1,	41,	35,	45,	-1,	37,	-1,	-1,	23,	33,	7|
1,	-1,	-1,	20,	-1,	-1,	22,	-1,	23,	-1,	-1,	-1,	-1,	-1,	-1,	46,	-1,	12,	-1,	-1,	-1,	-1,	13,	-1,	45,	29,	-1,	-1,	-1,	3,	5,	26,	37,	-1,	-1,	-1,	7,	42,	16,	-1,	49,	-1,	-1,	-1,	-1,	40,	33,	28,	24|
12,	-1,	29,	2,	-1,	6,	46,	-1,	-1,	-1,	-1,	-1,	7,	-1,	8,	-1,	19,	36,	39,	17,	-1,	42,	-1,	-1,	-1,	-1,	-1,	-1,	49,	-1,	21,	20,	-1,	33,	-1,	35,	-1,	-1,	44,	-1,	-1,	-1,	22,	-1,	47,	34,	-1,	15,	-1|
-1,	-1,	-1,	10,	-1,	31,	-1,	3,	11,	-1,	-1,	-1,	28,	20,	-1,	47,	49,	-1,	9,	-1,	7,	37,	26,	41,	38,	24,	-1,	-1,	-1,	22,	25,	-1,	1,	-1,	14,	-1,	27,	-1,	46,	-1,	33,	-1,	-1,	-1,	-1,	-1,	8,	-1,	36|
36,	49,	-1,	15,	13,	-1,	14,	-1,	24,	-1,	40,	46,	-1,	2,	27,	25,	-1,	-1,	-1,	-1,	21,	35,	-1,	-1,	19,	-1,	-1,	48,	-1,	7,	45,	23,	-1,	-1,	42,	-1,	26,	20,	-1,	12,	32,	28,	37,	-1,	-1,	-1,	31,	-1,	16|
37,	47,	11,	45,	25,	18,	-1,	-1,	1,	-1,	5,	-1,	-1,	14,	38,	-1,	33,	26,	34,	3,	20,	-1,	28,	43,	-1,	-1,	39,	-1,	2,	12,	40,	-1,	36,	44,	15,	-1,	22,	-1,	-1,	29,	10,	-1,	-1,	13,	9,	32,	7,	-1,	-1|
9,	38,	8,	-1,	41,	26,	-1,	31,	15,	-1,	-1,	-1,	-1,	-1,	45,	40,	13,	-1,	1,	-1,	-1,	-1,	23,	-1,	33,	7,	32,	-1,	48,	43,	-1,	-1,	47,	4,	46,	36,	-1,	-1,	-1,	11,	-1,	-1,	-1,	20,	2,	12,	-1,	-1,	-1|
17,	42,	-1,	-1,	-1,	-1,	-1,	26,	-1,	4,	12,	-1,	-1,	-1,	22,	-1,	-1,	-1,	-1,	44,	10,	-1,	-1,	36,	-1,	25,	-1,	6,	-1,	41,	-1,	35,	27,	-1,	9,	2,	-1,	-1,	38,	-1,	8,	-1,	30,	-1,	43,	-1,	-1,	46,	-1|];
