sudoku-ls/benchmarks_LEQ/INST_49x49/50/inst49x49_50_62.txt
7
1
-1	4	-1	-1	-1	17	42	-1	21	5	-1	8	-1	29	6	-1	-1	-1	-1	16	-1	-1	44	25	48	39	-1	33	40	-1	3	12	-1	-1	-1	46	-1	-1	49	-1	14	23	34	-1	-1	9	-1	45	-1
-1	45	-1	29	3	-1	13	30	-1	-1	31	22	48	12	43	21	-1	37	-1	-1	-1	-1	-1	-1	-1	-1	18	-1	8	2	24	-1	-1	-1	-1	26	6	15	35	44	7	41	-1	-1	-1	14	32	-1	23
16	-1	-1	26	-1	-1	-1	9	34	-1	46	18	-1	-1	14	-1	-1	25	-1	-1	1	43	21	28	23	-1	-1	-1	-1	-1	-1	-1	7	42	4	32	-1	3	-1	-1	-1	-1	-1	49	-1	6	-1	37	5
-1	33	-1	-1	-1	-1	5	45	43	-1	24	2	23	3	-1	-1	7	-1	28	12	49	10	47	8	-1	46	27	-1	-1	15	-1	-1	6	-1	22	39	36	-1	25	-1	18	-1	-1	29	48	-1	-1	41	-1
-1	25	-1	47	-1	23	-1	28	41	-1	1	-1	6	26	9	10	45	17	-1	-1	-1	-1	-1	-1	-1	-1	-1	32	-1	-1	48	46	-1	16	29	21	-1	-1	37	40	30	12	24	4	-1	-1	-1	-1	33
-1	-1	41	39	14	-1	15	40	-1	33	36	49	25	-1	32	48	23	13	-1	22	-1	-1	19	-1	20	16	-1	-1	5	-1	34	-1	21	-1	35	24	-1	28	-1	27	-1	8	17	-1	18	7	10	2	31
6	-1	21	48	49	-1	2	-1	20	-1	-1	32	42	-1	26	-1	-1	-1	44	-1	-1	-1	-1	29	35	45	-1	-1	27	18	41	43	-1	-1	23	-1	31	-1	-1	16	19	-1	-1	-1	-1	-1	-1	3	1
-1	-1	-1	13	-1	49	-1	16	-1	31	39	41	12	-1	-1	-1	-1	20	-1	-1	15	33	-1	17	-1	-1	4	-1	-1	10	-1	-1	-1	37	18	-1	-1	9	14	5	-1	-1	3	24	8	-1	-1	-1	-1
-1	15	10	22	-1	36	-1	-1	-1	-1	-1	-1	-1	-1	-1	-1	-1	4	-1	49	-1	-1	-1	14	7	-1	-1	26	12	35	27	40	5	-1	11	31	-1	29	13	32	17	24	16	-1	1	48	-1	-1	44
26	16	43	-1	12	-1	-1	-1	22	-1	-1	38	46	10	28	27	24	-1	35	-1	41	31	30	21	34	-1	-1	-1	-1	39	-1	-1	4	-1	36	42	-1	-1	-1	-1	-1	-1	7	32	-1	45	13	20	18
-1	39	24	18	38	-1	31	-1	-1	-1	45	21	-1	5	-1	-1	17	-1	-1	37	-1	9	22	20	-1	42	13	19	32	-1	23	-1	26	-1	-1	16	-1	-1	36	28	-1	30	12	34	-1	-1	-1	-1	-1
-1	-1	-1	34	6	4	-1	-1	-1	-1	3	1	-1	-1	-1	23	12	5	26	-1	-1	48	-1	37	16	8	-1	-1	42	31	22	-1	44	-1	-1	-1	38	-1	18	35	41	-1	-1	-1	-1	10	-1	-1	-1
-1	-1	-1	14	-1	-1	-1	-1	-1	32	18	-1	26	42	-1	22	-1	34	36	13	-1	47	-1	3	-1	-1	-1	-1	28	9	16	7	24	41	25	12	-1	27	40	8	23	-1	-1	-1	-1	-1	-1	-1	21
-1	32	2	35	-1	47	-1	-1	-1	14	-1	-1	29	17	31	38	3	-1	48	-1	-1	12	11	-1	24	44	28	-1	-1	-1	-1	-1	-1	19	-1	15	-1	-1	-1	37	4	-1	49	-1	26	-1	-1	-1	-1
-1	48	13	25	19	-1	-1	-1	-1	-1	44	-1	-1	4	46	-1	16	33	-1	-1	47	-1	-1	15	17	28	21	12	29	-1	-1	49	-1	36	43	14	-1	39	-1	7	-1	38	-1	-1	34	-1	-1	18	-1
34	-1	9	-1	27	-1	-1	-1	-1	28	41	-1	-1	-1	18	44	2	-1	21	30	-1	29	-1	13	-1	48	19	20	-1	6	8	-1	-1	-1	40	17	42	16	26	-1	-1	-1	23	33	-1	-1	-1	10	37
-1	-1	3	24	-1	-1	47	10	-1	-1	43	-1	13	-1	17	-1	-1	40	-1	-1	-1	25	9	4	31	-1	-1	-1	34	28	18	16	41	22	-1	44	30	-1	-1	-1	11	35	-1	-1	-1	-1	-1	-1	-1
-1	-1	5	-1	-1	22	28	42	46	-1	-1	-1	-1	45	13	-1	-1	10	15	-1	-1	-1	16	-1	-1	-1	33	-1	20	47	-1	-1	3	35	44	-1	-1	-1	-1	23	-1	27	29	-1	12	19	-1	-1	-1
30	-1	-1	38	20	42	-1	-1	-1	-1	-1	-1	-1	23	41	-1	8	-1	-1	-1	32	34	-1	47	5	6	10	-1	-1	-1	2	-1	-1	1	-1	-1	29	12	33	-1	15	18	-1	-1	27	22	-1	16	-1
-1	-1	-1	-1	15	-1	10	-1	31	-1	30	-1	-1	9	35	-1	-1	3	37	48	42	8	-1	26	-1	-1	-1	45	46	-1	-1	-1	17	7	-1	-1	40	-1	-1	-1	-1	-1	28	-1	6	-1	1	-1	-1
-1	40	-1	-1	46	32	-1	21	-1	-1	38	14	35	48	-1	36	34	11	-1	-1	-1	-1	18	-1	-1	-1	-1	-1	-1	5	15	9	12	-1	30	3	-1	8	-1	10	37	-1	-1	-1	-1	-1	-1	13	-1
-1	2	-1	28	-1	34	38	39	33	46	37	29	-1	24	-1	4	-1	-1	19	35	13	-1	-1	-1	42	-1	41	23	18	44	1	-1	11	-1	-1	-1	3	-1	-1	15	27	22	20	-1	31	-1	-1	49	12
-1	24	-1	-1	-1	43	-1	-1	19	-1	23	-1	30	-1	-1	32	-1	-1	-1	-1	17	28	45	-1	-1	20	5	22	47	21	-1	-1	-1	-1	13	-1	33	-1	1	-1	39	-1	-1	3	-1	4	40	-1	-1
22	23	-1	-1	18	20	-1	17	10	1	6	43	-1	-1	24	12	-1	14	33	-1	-1	44	-1	49	8	-1	35	-1	-1	-1	37	25	34	28	-1	-1	-1	41	-1	21	-1	9	-1	7	15	30	48	47	-1
21	9	-1	46	11	-1	-1	49	28	-1	-1	-1	-1	-1	15	3	-1	22	-1	39	40	19	-1	16	-1	-1	25	38	-1	27	-1	31	35	-1	26	-1	47	24	17	-1	48	-1	-1	-1	45	-1	-1	1	34
-1	6	42	-1	39	-1	27	-1	-1	48	9	-1	16	35	-1	-1	44	-1	-1	34	45	36	-1	-1	-1	21	-1	-1	22	-1	-1	-1	2	46	-1	40	-1	23	-1	-1	13	-1	18	19	33	-1	14	-1	-1
13	26	-1	-1	-1	33	-1	34	40	-1	-1	-1	-1	-1	-1	-1	18	-1	16	-1	8	-1	-1	31	-1	-1	-1	-1	-1	-1	29	36	-1	43	41	-1	-1	-1	30	19	-1	-1	9	-1	-1	-1	27	-1	-1
3	10	-1	5	8	-1	-1	-1	-1	12	-1	15	32	-1	-1	-1	-1	-1	27	-1	-1	2	33	46	43	26	34	24	-1	23	17	-1	-1	-1	-1	29	18	35	-1	-1	-1	4	25	-1	-1	28	-1	-1	13
45	14	34	-1	36	9	-1	25	26	-1	-1	27	44	-1	-1	16	48	-1	32	-1	46	39	-1	-1	41	47	37	5	35	11	-1	3	29	18	33	28	17	2	-1	6	21	15	8	-1	40	-1	-1	-1	-1
47	-1	26	-1	-1	46	40	38	17	10	16	20	-1	33	-1	-1	4	-1	13	-1	35	-1	8	48	-1	-1	42	-1	37	25	-1	5	15	27	45	-1	49	-1	-1	18	24	-1	31	-1	-1	36	3	-1	29
8	-1	-1	-1	-1	-1	-1	37	-1	7	-1	-1	9	-1	34	-1	14	-1	49	-1	-1	26	17	-1	44	4	2	-1	41	-1	36	-1	31	23	1	27	45	30	11	-1	46	20	43	-1	-1	-1	-1	35	-1
-1	-1	-1	32	4	19	17	24	12	-1	-1	-1	-1	-1	-1	-1	-1	6	40	45	-1	-1	-1	-1	15	-1	-1	-1	9	46	47	-1	30	-1	-1	33	-1	34	10	31	-1	-1	-1	41	14	18	20	-1	-1
-1	18	1	23	-1	-1	35	4	5	-1	15	34	21	-1	47	-1	30	-1	11	25	27	46	20	-1	-1	-1	3	9	-1	24	-1	-1	16	-1	6	37	-1	26	-1	22	-1	-1	-1	17	7	33	45	-1	38
-1	-1	-1	-1	-1	-1	33	41	36	2	-1	-1	-1	30	-1	-1	43	-1	-1	-1	-1	-1	-1	35	-1	-1	45	29	-1	-1	49	-1	-1	-1	-1	7	39	38	12	48	9	-1	-1	46	-1	-1	21	-1	-1
-1	7	15	49	22	-1	-1	29	35	45	-1	-1	-1	46	-1	-1	10	1	3	8	-1	30	-1	24	32	-1	43	31	26	17	12	42	38	21	-1	47	23	-1	19	13	36	-1	-1	11	25	-1	9	-1	4
44	13	-1	-1	-1	7	6	46	48	35	25	45	3	40	23	1	21	-1	-1	10	26	-1	34	42	12	33	-1	-1	-1	29	-1	-1	-1	2	37	-1	-1	-1	-1	-1	-1	11	15	-1	38	27	-1	-1	19
4	22	-1	-1	1	48	11	-1	-1	-1	26	47	-1	-1	-1	13	37	-1	20	-1	34	21	-1	27	18	35	-1	7	-1	-1	-1	-1	23	10	12	-1	-1	46	42	25	3	-1	-1	-1	-1	5	-1	-1	17
-1	-1	-1	-1	-1	-1	-1	22	-1	-1	49	37	15	8	48	-1	35	-1	-1	-1	6	-1	4	-1	-1	19	-1	-1	-1	-1	28	-1	43	24	17	-1	-1	13	-1	34	-1	31	32	-1	-1	-1	44	-1	-1
25	31	46	-1	-1	-1	34	20	13	-1	4	24	-1	16	-1	11	38	30	12	19	-1	-1	36	45	-1	-1	48	-1	1	40	14	18	39	5	32	-1	37	-1	15	-1	2	-1	-1	9	-1	47	29	8	-1
-1	-1	-1	-1	-1	-1	23	1	18	-1	10	-1	31	-1	-1	-1	-1	-1	7	-1	14	-1	-1	-1	37	2	40	-1	-1	48	35	-1	22	15	47	38	-1	21	-1	9	26	43	-1	12	49	-1	34	30	45
-1	35	-1	-1	2	45	-1	-1	-1	-1	-1	-1	34	28	-1	31	15	-1	25	-1	-1	-1	5	11	29	13	-1	-1	21	36	-1	-1	19	-1	-1	-1	-1	44	24	17	47	6	41	-1	-1	26	22	-1	-1
-1	28	12	40	30	-1	43	-1	-1	36	21	9	11	6	-1	-1	22	27	-1	24	39	16	10	-1	26	-1	-1	-1	-1	-1	-1	13	-1	8	-1	18	-1	-1	29	41	-1	-1	-1	-1	-1	-1	23	-1	7
1	-1	-1	-1	32	-1	22	-1	-1	-1	19	10	-1	36	30	46	-1	-1	4	18	2	15	-1	-1	45	-1	8	17	-1	-1	-1	26	37	-1	-1	-1	7	-1	-1	-1	49	-1	-1	-1	21	40	33	28	-1
12	-1	29	2	40	6	46	-1	-1	13	-1	30	-1	-1	-1	24	-1	36	-1	-1	-1	42	31	-1	-1	10	-1	11	49	16	-1	20	18	-1	28	-1	41	14	-1	45	5	-1	-1	38	-1	-1	-1	-1	-1
-1	-1	-1	-1	-1	31	-1	-1	11	21	34	-1	-1	-1	16	-1	-1	32	9	15	-1	-1	-1	-1	38	24	-1	-1	17	-1	25	6	1	-1	-1	-1	-1	-1	46	30	33	-1	-1	45	23	-1	8	39	-1
-1	49	-1	-1	-1	30	14	18	-1	-1	-1	46	33	2	-1	-1	-1	-1	5	6	21	-1	-1	22	-1	34	-1	-1	10	-1	45	-1	-1	-1	42	-1	26	-1	-1	12	32	28	37	1	17	-1	31	-1	16
-1	-1	-1	-1	25	18	-1	48	-1	8	5	42	-1	-1	-1	-1	-1	26	34	-1	-1	-1	28	-1	-1	30	-1	27	2	-1	40	-1	36	44	15	4	22	-1	23	29	10	-1	-1	13	9	-1	-1	-1	-1
9	38	-1	-1	41	-1	-1	31	-1	-1	-1	44	49	25	45	40	-1	-1	1	42	-1	14	23	5	-1	7	-1	-1	-1	43	30	-1	47	-1	46	36	-1	17	34	-1	6	3	35	20	-1	-1	-1	27	10
17	42	23	33	-1	28	-1	-1	-1	-1	-1	16	-1	39	-1	29	-1	-1	-1	-1	-1	-1	-1	36	21	25	20	-1	13	41	-1	-1	27	-1	9	2	-1	19	-1	1	8	-1	30	-1	-1	11	-1	46	-1
49 
28 15 44 24
10 42 21 39
40 6 11 34
41 37 29 39
31 2 35 15
49 28 13 47
28 20 18 11
17 9 32 13
37 4 43 10
41 45 38 5
7 43 15 47
45 27 20 12
12 34 29 14
11 32 19 3
46 4 26 1
23 3 40 37
40 12 19 11
25 14 18 10
12 42 33 24
1 35 43 4
31 20 19 32
32 11 44 43
8 26 10 8
21 45 27 48
11 46 21 15
19 7 15 31
23 14 15 20
19 20 48 18
11 6 46 46
6 19 36 27
24 4 19 19
30 45 18 49
42 48 41 11
20 10 18 37
1 11 8 46
38 44 8 28
15 9 26 15
37 9 2 23
17 47 28 32
49 23 12 28
47 49 23 19
28 9 14 48
43 40 11 41
20 44 45 46
49 9 42 42
40 28 13 42
26 25 28 11
45 3 48 29
20 46 36 18
